Data path: /scratch/opt/lxu/CFLG/benchmarks/random_A
Instance: r_10_0.3_12.txt
Result path: /scratch/opt/lxu/CFLG/results/random_A
Solver: Gurobi
Time limit: 7200
Formulation: EF
Cover: Large
julia --project=. src/main.jl /scratch/opt/lxu/CFLG/benchmarks/random_A r_10_0.3_12.txt /scratch/opt/lxu/CFLG/results/random_A Gurobi 7200 EF Large
The latest version of Julia in the `release` channel is 1.11.5+0.x64.linux.gnu. You currently have `1.11.4+0.x64.linux.gnu` installed. Run:

  juliaup update

in your terminal shell to install Julia 1.11.5+0.x64.linux.gnu and update the `release` channel to that version.
/scratch/opt/lxu/CFLG/benchmarks/random_A Gurobi 7200.0 /scratch/opt/lxu/CFLG/results/random_A r_10_0.3_12.txt EF Large
/scratch/opt/lxu/CFLG/benchmarks/random_A/r_10_0.3_12.txt

 read graph
data loaded

problem_graph/original graph: node: 10/10 edge: 12/12 dlt: 1.221004914463064 break_avg_len: 0.610502457231532 break_max_len: 0.9875583338039858elapsed CPU time: 0.015003 seconds
Set parameter TokenServer to value "solice01.zib.de"
Set parameter Threads to value 1
Set parameter OutputFlag to value 1
Set parameter MIPGap to value 0.0001
Set parameter TimeLimit to value 7199.984997

 model loaded

Gurobi Optimizer version 12.0.1 build v12.0.1rc0 (linux64 - "Debian GNU/Linux 12 (bookworm)")

CPU model: Intel(R) Xeon(R) Gold 5122 CPU @ 3.60GHz, instruction set [SSE2|AVX|AVX2|AVX512]
Thread count: 8 physical cores, 16 logical processors, using up to 1 threads

Non-default parameters:
TimeLimit  7199.984997
Threads  1

Optimize a model with 5724 rows, 2328 columns and 14964 nonzeros
Model fingerprint: 0xfd019d61
Variable types: 372 continuous, 1956 integer (1956 binary)
Coefficient statistics:
  Matrix range     [3e-01, 1e+01]
  Objective range  [1e+00, 1e+00]
  Bounds range     [3e-01, 1e+00]
  RHS range        [2e-02, 1e+01]
Found heuristic solution: objective 4.0000000
Presolve removed 3416 rows and 1328 columns
Presolve time: 0.11s
Presolved: 2308 rows, 1000 columns, 6031 nonzeros
Variable types: 50 continuous, 950 integer (950 binary)

Root relaxation: objective 4.359909e-01, 786 iterations, 0.01 seconds (0.02 work units)

    Nodes    |    Current Node    |     Objective Bounds      |     Work
 Expl Unexpl |  Obj  Depth IntInf | Incumbent    BestBd   Gap | It/Node Time

     0     0    0.43599    0  411    4.00000    0.43599  89.1%     -    0s
H    0     0                       3.0000000    0.43599  85.5%     -    0s
     0     0    2.00000    0   34    3.00000    2.00000  33.3%     -    0s
     0     0    2.00000    0   70    3.00000    2.00000  33.3%     -    0s
     0     0    2.00000    0   58    3.00000    2.00000  33.3%     -    0s
     0     0    2.00000    0   57    3.00000    2.00000  33.3%     -    0s
     0     0    2.00000    0    3    3.00000    2.00000  33.3%     -    0s
     0     0    2.00000    0   36    3.00000    2.00000  33.3%     -    0s
H    0     0                       2.0000000    2.00000  0.00%     -    0s

Explored 1 nodes (4614 simplex iterations) in 0.53 seconds (0.40 work units)
Thread count was 1 (of 16 available processors)

Solution count 5: 2 3 3 ... 4

Optimal solution found (tolerance 1.00e-04)
Best objective 2.000000000000e+00, best bound 2.000000000000e+00, gap 0.0000%

User-callback calls 660, time in user-callback 0.01 sec
Stat(MathOptInterface.OPTIMAL, 2.0, 2.0, 0.0, 6.92129744444244e-310, 0.015003, 0.5266017913818359, 1, Main.CFLG.EF, "", #undef)
